13914.03,50.05,56.86
14442.67,48.22,54.78
15388.54,45.25,51.41
12752.44,54.61,62.04
13588.38,51.25,58.22
13613.5,51.15,58.11
14047.28,49.58,56.32
16098.74,43.26,49.14
16038.76,43.42,49.33
14479.56,48.1,54.64
14641.45,47.56,54.03
13465.49,51.72,58.75
14607.78,47.67,54.16
12907.85,53.95,61.29
13515.36,51.53,58.53
12695.29,54.85,62.31
14146.27,49.23,55.92
13022.36,53.48,60.75
13618.35,51.14,58.09
15459.11,45.05,51.17
